
Gurobi 8.1.1 (win64, Python) logging started 01/12/20 22:39:15

Academic license - for non-commercial use only

Gurobi 8.1.1 (win64, Python) logging started 01/12/20 22:47:46

Academic license - for non-commercial use only

Gurobi 8.1.1 (win64, Python) logging started 01/12/20 23:16:31

Academic license - for non-commercial use only

Gurobi 8.1.1 (win64, Python) logging started 01/12/20 23:21:44

Academic license - for non-commercial use only
